<number of tasks>
58

<cycle time>
62

<task times>
1 10
2 53
3 41
4 36
5 35
6 17
7 34
8 23
9 14
10 52
11 33
12 34
13 12
14 52
15 12
16 33
17 44
18 7
19 15
20 13
21 29
22 37
23 43
24 23
25 24
26 9
27 16
28 12
29 26
30 22
31 51
32 47
33 34
34 23
35 12
36 52
37 12
38 33
39 44
40 7
41 15
42 13
43 29
44 37
45 43
46 23
47 24
48 9
49 16
50 12
51 26
52 12
53 52
54 12
55 33
56 44
57 7
58 15

<precedence relations>
1,9
2,25
3,21
3,22
4,10
5,36
6,23
6,24
7,43
8,44
9,11
11,13
11,14
11,15
12,17
13,17
14,17
15,17
16,18
17,20
18,19
19,23
20,21
20,25
21,26
21,44
22,27
23,31
24,31
25,38
26,29
27,30
28,32
28,33
29,31
30,34
31,36
32,45
33,35
34,36
35,43
36,37
36,38
37,39
37,40
37,41
38,52
39,43
40,43
41,42
42,43
43,45
44,45
45,46
45,48
45,49
46,47
46,50
47,51
48,55
49,58
50,58
51,52
52,53
53,54
54,55
54,56
55,57
56,57
57,58

<setup times forward>
1,2:1
1,3:1
1,4:2
1,5:5
1,6:1
1,7:1
1,8:2
1,9:3
1,12:3
1,16:4
1,18:1
1,19:3
1,22:5
1,24:5
1,27:2
1,28:3
1,30:1
1,32:3
1,33:2
1,34:5
1,35:2
2,1:1
2,4:1
2,5:4
2,8:1
2,9:2
2,10:1
2,12:2
2,14:2
2,16:3
2,17:1
2,19:2
2,20:1
2,21:3
2,22:4
2,23:1
2,24:4
2,26:1
2,27:1
2,28:2
2,29:4
2,31:1
2,32:2
2,33:1
2,34:4
2,35:1
2,36:2
2,39:1
2,42:1
2,43:1
2,44:4
2,45:3
2,47:2
2,48:2
2,51:2
3,1:1
3,4:1
3,5:4
3,8:1
3,9:2
3,10:1
3,12:2
3,14:2
3,16:3
3,17:1
3,19:2
3,20:1
3,21:3
3,22:4
3,23:1
3,24:4
3,28:2
3,32:2
3,33:1
3,35:1
4,1:2
4,2:1
4,3:1
4,5:3
4,6:1
4,7:1
4,9:1
4,10:2
4,11:1
4,12:1
4,13:1
4,14:1
4,15:1
4,16:2
4,18:1
4,19:1
4,21:2
4,22:3
4,23:2
4,24:3
4,25:1
4,26:2
4,28:1
4,29:3
4,30:1
4,31:2
4,32:1
4,34:3
4,36:1
4,37:1
4,38:2
4,39:2
4,40:1
4,41:1
4,42:2
4,43:2
4,44:3
4,45:2
4,46:1
4,47:1
4,48:1
4,49:1
4,50:1
4,51:1
4,52:1
4,53:1
4,54:2
4,55:3
4,56:2
4,57:3
4,58:3
5,1:5
5,2:4
5,3:4
5,4:3
5,6:4
5,7:4
5,8:3
5,9:2
5,10:5
5,11:4
5,12:2
5,13:4
5,14:2
5,15:4
5,16:1
5,17:3
5,18:4
5,19:2
5,20:3
5,21:1
5,23:5
5,25:4
5,26:5
5,27:3
5,28:2
5,30:4
5,31:5
5,32:2
5,33:3
5,35:3
5,36:2
6,1:1
6,4:1
6,5:4
6,8:1
6,9:2
6,10:1
6,12:2
6,14:2
6,16:3
6,17:1
6,19:2
6,20:1
6,21:3
6,22:4
6,23:1
6,24:4
6,26:1
6,27:1
6,28:2
6,29:4
6,32:2
6,33:1
6,34:4
6,35:1
6,44:4
7,1:1
7,4:1
7,5:4
7,8:1
7,9:2
7,10:1
7,12:2
7,14:2
7,16:3
7,17:1
7,19:2
7,20:1
7,21:3
7,22:4
7,23:1
7,24:4
7,26:1
7,27:1
7,28:2
7,29:4
7,31:1
7,32:2
7,33:1
7,34:4
7,35:1
7,36:2
7,38:1
7,39:1
7,42:1
7,43:1
7,44:4
8,1:2
8,2:1
8,3:1
8,5:3
8,6:1
8,7:1
8,9:1
8,10:2
8,11:1
8,12:1
8,13:1
8,14:1
8,15:1
8,16:2
8,18:1
8,19:1
8,21:2
8,22:3
8,23:2
8,24:3
8,25:1
8,26:2
8,28:1
8,29:3
8,30:1
8,31:2
8,32:1
8,34:3
8,36:1
8,37:1
8,38:2
8,39:2
8,40:1
8,41:1
8,42:2
8,43:2
8,44:3
9,2:2
9,3:2
9,4:1
9,5:2
9,6:2
9,7:2
9,8:1
9,10:3
9,11:2
9,16:1
9,18:2
9,22:2
9,23:3
9,24:2
9,27:1
9,30:2
9,33:1
9,34:2
9,35:1
10,2:1
10,3:1
10,5:5
10,6:1
10,7:1
10,8:2
10,9:3
10,11:1
10,12:3
10,13:1
10,14:3
10,15:1
10,16:4
10,17:2
10,18:1
10,19:3
10,20:2
10,21:4
10,22:5
10,24:5
10,25:1
10,27:2
10,28:3
10,29:5
10,30:1
10,32:3
10,33:2
10,34:5
10,35:2
10,36:3
10,37:1
10,40:1
10,41:1
10,44:5
10,45:4
10,46:1
10,47:3
10,48:3
10,49:1
10,50:1
10,51:3
10,52:3
10,53:3
10,54:4
10,55:5
10,56:4
10,57:5
10,58:5
11,4:1
11,5:4
11,8:1
11,10:1
11,12:2
11,14:2
11,16:3
11,19:2
11,22:4
11,23:1
11,24:4
11,27:1
11,28:2
11,32:2
11,33:1
11,34:4
11,35:1
12,1:3
12,2:2
12,3:2
12,4:1
12,5:2
12,6:2
12,7:2
12,8:1
12,10:3
12,11:2
12,13:2
12,15:2
12,16:1
12,17:1
12,18:2
12,22:2
12,23:3
12,24:2
12,27:1
12,30:2
12,33:1
12,34:2
12,35:1
13,4:1
13,5:4
13,8:1
13,10:1
13,12:2
13,14:2
13,16:3
13,17:1
13,19:2
13,22:4
13,23:1
13,24:4
13,27:1
13,28:2
13,32:2
13,33:1
13,34:4
13,35:1
14,2:2
14,3:2
14,4:1
14,5:2
14,6:2
14,7:2
14,8:1
14,10:3
14,13:2
14,15:2
14,16:1
14,17:1
14,18:2
14,22:2
14,23:3
14,24:2
14,27:1
14,30:2
14,33:1
14,34:2
14,35:1
15,4:1
15,5:4
15,8:1
15,10:1
15,12:2
15,14:2
15,16:3
15,17:1
15,19:2
15,22:4
15,23:1
15,24:4
15,27:1
15,28:2
15,32:2
15,33:1
15,34:4
15,35:1
16,1:4
16,2:3
16,3:3
16,4:2
16,5:1
16,6:3
16,7:3
16,8:2
16,9:1
16,10:4
16,11:3
16,12:1
16,13:3
16,14:1
16,15:3
16,17:2
16,18:3
16,20:2
16,22:1
16,24:1
16,25:3
16,26:4
16,27:2
16,28:1
16,29:1
16,30:3
16,32:1
16,33:2
16,34:1
16,35:2
16,44:1
17,2:1
17,3:1
17,5:3
17,6:1
17,7:1
17,10:2
17,16:2
17,18:1
17,19:1
17,22:3
17,23:2
17,24:3
17,28:1
17,30:1
17,32:1
17,34:3
18,1:1
18,4:1
18,5:4
18,8:1
18,9:2
18,10:1
18,12:2
18,14:2
18,17:1
18,19:2
18,20:1
18,21:3
18,22:4
18,24:4
18,26:1
18,27:1
18,28:2
18,29:4
18,32:2
18,33:1
18,34:4
18,35:1
18,44:4
19,1:3
19,2:2
19,3:2
19,4:1
19,5:2
19,6:2
19,7:2
19,8:1
19,10:3
19,11:2
19,13:2
19,15:2
19,17:1
19,20:1
19,21:1
19,22:2
19,23:3
19,24:2
19,25:2
19,26:3
19,27:1
19,29:2
19,30:2
19,33:1
19,34:2
19,35:1
19,44:2
20,2:1
20,3:1
20,5:3
20,6:1
20,7:1
20,10:2
20,16:2
20,18:1
20,19:1
20,21:2
20,22:3
20,23:2
20,24:3
20,25:1
20,28:1
20,30:1
20,32:1
20,34:3
21,2:3
21,4:2
21,5:1
21,6:3
21,7:3
21,8:2
21,10:4
21,18:3
21,19:1
21,22:1
21,23:4
21,24:1
21,25:3
21,26:4
21,27:2
21,28:1
21,30:3
21,32:1
21,33:2
21,34:1
21,35:2
21,44:1
22,1:5
22,2:4
22,4:3
22,6:4
22,7:4
22,8:3
22,9:2
22,10:5
22,11:4
22,12:2
22,13:4
22,14:2
22,15:4
22,16:1
22,17:3
22,18:4
22,19:2
22,20:3
22,21:1
22,23:5
22,25:4
22,26:5
22,27:3
22,28:2
22,31:5
22,32:2
22,33:3
22,35:3
23,2:1
23,3:1
23,4:2
23,5:5
23,7:1
23,8:2
23,9:3
23,11:1
23,12:3
23,13:1
23,14:3
23,15:1
23,17:2
23,20:2
23,21:4
23,22:5
23,24:5
23,25:1
23,27:2
23,28:3
23,29:5
23,30:1
23,32:3
23,33:2
23,34:5
23,35:2
23,44:5
24,1:5
24,2:4
24,3:4
24,4:3
24,7:4
24,8:3
24,9:2
24,10:5
24,11:4
24,12:2
24,13:4
24,14:2
24,15:4
24,16:1
24,17:3
24,18:4
24,19:2
24,20:3
24,21:1
24,23:5
24,25:4
24,26:5
24,27:3
24,28:2
24,30:4
24,31:5
24,32:2
24,33:3
24,35:3
25,4:1
25,5:4
25,8:1
25,10:1
25,16:3
25,19:2
25,21:3
25,22:4
25,23:1
25,24:4
25,26:1
25,27:1
25,28:2
25,29:4
25,31:1
25,32:2
25,33:1
25,34:4
25,35:1
25,36:2
25,38:1
25,39:1
25,42:1
25,43:1
25,44:4
25,45:3
25,47:2
25,48:2
25,51:2
26,2:1
26,4:2
26,5:5
26,6:1
26,7:1
26,8:2
26,16:4
26,18:1
26,19:3
26,22:5
26,24:5
26,25:1
26,27:2
26,28:3
26,29:5
26,30:1
26,32:3
26,33:2
26,34:5
26,35:2
26,44:5
27,1:2
27,2:1
27,5:3
27,6:1
27,7:1
27,9:1
27,10:2
27,11:1
27,12:1
27,13:1
27,14:1
27,15:1
27,16:2
27,18:1
27,19:1
27,21:2
27,23:2
27,24:3
27,25:1
27,26:2
27,28:1
27,29:3
27,30:1
27,31:2
27,32:1
27,44:3
28,1:3
28,2:2
28,3:2
28,4:1
28,5:2
28,6:2
28,7:2
28,8:1
28,10:3
28,11:2
28,13:2
28,15:2
28,16:1
28,17:1
28,18:2
28,20:1
28,21:1
28,22:2
28,23:3
28,24:2
28,25:2
28,26:3
28,27:1
28,29:2
28,30:2
28,31:3
28,33:1
28,34:2
28,37:2
28,38:3
28,39:3
28,40:2
28,41:2
28,42:3
28,44:2
29,2:4
29,4:3
29,6:4
29,7:4
29,8:3
29,10:5
29,16:1
29,18:4
29,19:2
29,23:5
29,25:4
29,27:3
29,28:2
29,30:4
29,31:5
29,32:2
29,33:3
29,35:3
30,1:1
30,4:1
30,5:4
30,8:1
30,9:2
30,10:1
30,12:2
30,14:2
30,16:3
30,17:1
30,19:2
30,20:1
30,21:3
30,23:1
30,24:4
30,26:1
30,28:2
30,29:4
30,31:1
30,32:2
30,33:1
30,34:4
30,35:1
30,44:4
31,2:1
31,4:2
31,5:5
31,7:1
31,8:2
31,22:5
31,25:1
31,27:2
31,28:3
31,30:1
31,32:3
31,33:2
31,34:5
31,35:2
31,36:3
31,44:5
32,1:3
32,2:2
32,3:2
32,4:1
32,5:2
32,6:2
32,7:2
32,8:1
32,10:3
32,11:2
32,13:2
32,15:2
32,16:1
32,17:1
32,18:2
32,20:1
32,21:1
32,22:2
32,23:3
32,24:2
32,25:2
32,26:3
32,27:1
32,29:2
32,30:2
32,31:3
32,33:1
32,34:2
32,35:1
32,37:2
32,38:3
32,39:3
32,40:2
32,41:2
32,42:3
32,43:3
32,44:2
32,45:1
33,1:2
33,2:1
33,3:1
33,5:3
33,6:1
33,7:1
33,9:1
33,10:2
33,11:1
33,12:1
33,13:1
33,14:1
33,15:1
33,16:2
33,18:1
33,19:1
33,21:2
33,22:3
33,23:2
33,24:3
33,25:1
33,26:2
33,29:3
33,30:1
33,31:2
33,32:1
33,34:3
33,36:1
33,37:1
33,38:2
33,39:2
33,40:1
33,41:1
33,42:2
33,44:3
34,1:5
34,2:4
34,4:3
34,6:4
34,7:4
34,8:3
34,9:2
34,10:5
34,11:4
34,12:2
34,13:4
34,14:2
34,15:4
34,16:1
34,17:3
34,18:4
34,19:2
34,20:3
34,21:1
34,23:5
34,25:4
34,26:5
34,28:2
34,31:5
34,32:2
34,33:3
34,35:3
34,36:2
35,1:2
35,2:1
35,3:1
35,5:3
35,6:1
35,7:1
35,9:1
35,10:2
35,11:1
35,12:1
35,13:1
35,14:1
35,15:1
35,16:2
35,18:1
35,19:1
35,21:2
35,22:3
35,23:2
35,24:3
35,25:1
35,26:2
35,29:3
35,30:1
35,31:2
35,32:1
35,34:3
35,36:1
35,37:1
35,38:2
35,39:2
35,40:1
35,41:1
35,42:2
35,43:2
35,44:3
36,2:2
36,4:1
36,7:2
36,8:1
36,10:3
36,25:2
36,33:1
36,35:1
36,37:2
36,38:3
36,44:2
37,4:1
37,8:1
37,10:1
37,28:2
37,32:2
37,33:1
37,35:1
37,38:1
37,39:1
37,44:4
38,4:2
38,7:1
38,8:2
38,28:3
38,32:3
38,33:2
38,35:2
38,37:1
38,40:1
38,41:1
38,44:5
38,45:4
38,46:1
38,47:3
38,48:3
38,49:1
38,50:1
38,51:3
38,52:3
39,2:1
39,4:2
39,7:1
39,8:2
39,25:1
39,28:3
39,32:3
39,33:2
39,35:2
39,40:1
39,41:1
39,44:5
40,4:1
40,8:1
40,10:1
40,28:2
40,32:2
40,33:1
40,35:1
40,38:1
40,39:1
40,42:1
40,43:1
40,44:4
41,4:1
41,8:1
41,10:1
41,28:2
41,32:2
41,33:1
41,35:1
41,38:1
41,39:1
41,42:1
41,44:4
42,2:1
42,4:2
42,7:1
42,8:2
42,25:1
42,28:3
42,32:3
42,33:2
42,35:2
42,40:1
42,44:5
43,2:1
43,4:2
43,8:2
43,25:1
43,32:3
43,44:5
43,45:4
44,2:4
44,4:3
44,6:4
44,7:4
44,10:5
44,16:1
44,18:4
44,19:2
44,23:5
44,25:4
44,26:5
44,27:3
44,28:2
44,30:4
44,31:5
44,32:2
44,33:3
44,35:3
44,36:2
44,37:4
44,38:5
44,39:5
44,40:4
44,41:4
44,42:5
44,43:5
44,45:1
45,2:3
45,4:2
45,10:4
45,25:3
45,38:4
45,46:3
45,48:1
45,49:3
46,4:1
46,10:1
46,38:1
46,47:2
46,48:2
47,2:2
47,4:1
47,10:3
47,25:2
47,38:3
47,49:2
47,50:2
48,2:2
48,4:1
48,10:3
48,25:2
48,38:3
48,46:2
48,49:2
48,50:2
48,54:1
48,55:2
48,56:1
49,4:1
49,10:1
49,38:1
49,47:2
49,48:2
49,51:2
49,52:2
49,53:2
49,54:3
49,55:4
49,56:3
49,57:4
49,58:4
50,4:1
50,10:1
50,38:1
50,47:2
50,48:2
50,51:2
50,52:2
50,53:2
50,54:3
50,55:4
50,56:3
50,57:4
50,58:4
51,2:2
51,4:1
51,10:3
51,25:2
51,38:3
51,49:2
51,50:2
52,4:1
52,10:3
52,49:2
52,50:2
53,4:1
53,10:3
53,49:2
53,50:2
53,54:1
54,4:2
54,10:4
54,48:1
54,49:3
54,50:3
54,55:1
55,4:3
55,10:5
55,49:4
55,50:4
55,56:1
56,4:2
56,10:4
56,48:1
56,49:3
56,50:3
56,55:1
56,57:1
57,4:3
57,10:5
57,49:4
57,50:4
58,4:3
58,10:5

<setup times backward>
1,2:1
1,3:1
1,4:2
1,5:5
1,6:1
1,7:1
1,8:2
1,12:3
1,16:4
1,18:1
1,19:3
1,22:5
1,24:5
1,27:2
1,28:3
1,30:1
1,32:3
1,33:2
1,34:5
1,35:2
2,4:1
2,5:4
2,8:1
2,9:2
2,12:2
2,14:2
2,16:3
2,17:1
2,19:2
2,20:1
2,21:3
2,22:4
2,24:4
2,27:1
2,28:2
2,29:4
2,32:2
2,33:1
2,34:4
2,35:1
2,36:2
2,44:4
2,45:3
2,47:2
2,48:2
2,51:2
3,4:1
3,5:4
3,8:1
3,9:2
3,12:2
3,14:2
3,16:3
3,17:1
3,19:2
3,20:1
3,24:4
3,28:2
3,32:2
3,33:1
3,35:1
4,5:3
4,9:1
4,12:1
4,14:1
4,16:2
4,19:1
4,21:2
4,22:3
4,24:3
4,28:1
4,29:3
4,32:1
4,34:3
4,36:1
4,44:3
4,45:2
4,47:1
4,48:1
4,51:1
4,52:1
4,53:1
4,54:2
4,55:3
4,56:2
4,57:3
4,58:3
6,4:1
6,5:4
6,8:1
6,9:2
6,12:2
6,14:2
6,16:3
6,17:1
6,19:2
6,20:1
6,21:3
6,22:4
6,27:1
6,28:2
6,29:4
6,32:2
6,33:1
6,34:4
6,35:1
6,44:4
7,4:1
7,5:4
7,8:1
7,9:2
7,12:2
7,14:2
7,16:3
7,17:1
7,19:2
7,20:1
7,21:3
7,22:4
7,24:4
7,27:1
7,28:2
7,29:4
7,32:2
7,33:1
7,34:4
7,35:1
7,36:2
7,44:4
8,5:3
8,9:1
8,12:1
8,14:1
8,16:2
8,19:1
8,21:2
8,22:3
8,24:3
8,28:1
8,29:3
8,32:1
8,34:3
8,36:1
9,5:2
9,16:1
9,22:2
9,24:2
9,34:2
10,2:1
10,3:1
10,4:2
10,5:5
10,6:1
10,7:1
10,8:2
10,9:3
10,11:1
10,12:3
10,13:1
10,14:3
10,15:1
10,16:4
10,17:2
10,18:1
10,19:3
10,20:2
10,21:4
10,22:5
10,24:5
10,25:1
10,27:2
10,28:3
10,29:5
10,30:1
10,32:3
10,33:2
10,34:5
10,35:2
10,36:3
10,37:1
10,40:1
10,41:1
10,44:5
10,45:4
10,46:1
10,47:3
10,48:3
10,49:1
10,50:1
10,51:3
10,52:3
10,53:3
10,54:4
10,55:5
10,56:4
10,57:5
10,58:5
11,4:1
11,5:4
11,8:1
11,9:2
11,12:2
11,16:3
11,19:2
11,22:4
11,24:4
11,27:1
11,28:2
11,32:2
11,33:1
11,34:4
11,35:1
12,5:2
12,16:1
12,22:2
12,24:2
12,34:2
13,4:1
13,5:4
13,8:1
13,9:2
13,12:2
13,14:2
13,16:3
13,19:2
13,22:4
13,24:4
13,27:1
13,28:2
13,32:2
13,33:1
13,34:4
13,35:1
14,5:2
14,16:1
14,22:2
14,24:2
14,34:2
15,4:1
15,5:4
15,8:1
15,9:2
15,12:2
15,14:2
15,16:3
15,19:2
15,22:4
15,24:4
15,27:1
15,28:2
15,32:2
15,33:1
15,34:4
15,35:1
16,5:1
16,22:1
16,24:1
16,29:1
16,34:1
16,44:1
17,5:3
17,9:1
17,12:1
17,14:1
17,16:2
17,19:1
17,22:3
17,24:3
17,28:1
17,32:1
17,34:3
18,4:1
18,5:4
18,8:1
18,9:2
18,12:2
18,14:2
18,16:3
18,17:1
18,20:1
18,21:3
18,22:4
18,24:4
18,27:1
18,28:2
18,29:4
18,32:2
18,33:1
18,34:4
18,35:1
18,44:4
19,5:2
19,16:1
19,21:1
19,22:2
19,24:2
19,29:2
19,34:2
19,44:2
20,5:3
20,9:1
20,12:1
20,14:1
20,16:2
20,19:1
20,22:3
20,24:3
20,28:1
20,32:1
20,34:3
21,5:1
21,22:1
21,24:1
21,34:1
23,2:1
23,3:1
23,4:2
23,5:5
23,6:1
23,7:1
23,8:2
23,9:3
23,11:1
23,12:3
23,13:1
23,14:3
23,15:1
23,16:4
23,17:2
23,18:1
23,19:3
23,20:2
23,21:4
23,22:5
23,24:5
23,25:1
23,27:2
23,28:3
23,29:5
23,30:1
23,32:3
23,33:2
23,34:5
23,35:2
23,44:5
25,4:1
25,5:4
25,8:1
25,9:2
25,12:2
25,14:2
25,16:3
25,17:1
25,19:2
25,20:1
25,21:3
25,22:4
25,24:4
25,27:1
25,28:2
25,29:4
25,32:2
25,33:1
25,34:4
25,35:1
25,36:2
25,44:4
25,45:3
25,47:2
25,48:2
25,51:2
26,2:1
26,3:1
26,4:2
26,5:5
26,6:1
26,7:1
26,8:2
26,9:3
26,11:1
26,12:3
26,13:1
26,14:3
26,15:1
26,16:4
26,17:2
26,18:1
26,19:3
26,20:2
26,21:4
26,22:5
26,24:5
26,25:1
26,27:2
26,28:3
26,30:1
26,32:3
26,33:2
26,34:5
26,35:2
26,44:5
27,5:3
27,9:1
27,12:1
27,14:1
27,16:2
27,19:1
27,21:2
27,22:3
27,24:3
27,28:1
27,29:3
27,32:1
27,44:3
28,5:2
28,16:1
28,21:1
28,22:2
28,24:2
28,29:2
28,34:2
28,44:2
30,4:1
30,5:4
30,8:1
30,9:2
30,12:2
30,14:2
30,16:3
30,17:1
30,19:2
30,20:1
30,21:3
30,22:4
30,24:4
30,27:1
30,28:2
30,29:4
30,32:2
30,33:1
30,35:1
30,44:4
31,2:1
31,3:1
31,4:2
31,5:5
31,6:1
31,7:1
31,8:2
31,9:3
31,11:1
31,12:3
31,13:1
31,14:3
31,15:1
31,16:4
31,17:2
31,18:1
31,19:3
31,20:2
31,21:4
31,22:5
31,24:5
31,25:1
31,27:2
31,28:3
31,29:5
31,30:1
31,32:3
31,33:2
31,34:5
31,35:2
31,44:5
32,5:2
32,16:1
32,21:1
32,22:2
32,24:2
32,29:2
32,34:2
32,44:2
33,5:3
33,9:1
33,12:1
33,14:1
33,16:2
33,19:1
33,21:2
33,22:3
33,24:3
33,28:1
33,29:3
33,32:1
33,34:3
33,36:1
33,44:3
35,5:3
35,9:1
35,12:1
35,14:1
35,16:2
35,19:1
35,21:2
35,22:3
35,24:3
35,28:1
35,29:3
35,32:1
35,34:3
35,36:1
35,44:3
36,5:2
36,16:1
36,21:1
36,22:2
36,24:2
36,29:2
36,34:2
36,44:2
37,4:1
37,5:4
37,8:1
37,9:2
37,12:2
37,14:2
37,16:3
37,17:1
37,19:2
37,20:1
37,21:3
37,22:4
37,24:4
37,27:1
37,28:2
37,29:4
37,32:2
37,33:1
37,34:4
37,35:1
37,36:2
37,44:4
38,2:1
38,3:1
38,4:2
38,5:5
38,6:1
38,7:1
38,8:2
38,9:3
38,11:1
38,12:3
38,13:1
38,14:3
38,15:1
38,16:4
38,17:2
38,18:1
38,19:3
38,20:2
38,21:4
38,22:5
38,24:5
38,25:1
38,27:2
38,28:3
38,29:5
38,30:1
38,32:3
38,33:2
38,34:5
38,35:2
38,36:3
38,37:1
38,40:1
38,41:1
38,44:5
38,45:4
38,46:1
38,47:3
38,48:3
38,49:1
38,50:1
38,51:3
39,2:1
39,3:1
39,4:2
39,5:5
39,6:1
39,7:1
39,8:2
39,9:3
39,11:1
39,12:3
39,13:1
39,14:3
39,15:1
39,16:4
39,17:2
39,18:1
39,19:3
39,20:2
39,21:4
39,22:5
39,24:5
39,25:1
39,27:2
39,28:3
39,29:5
39,30:1
39,32:3
39,33:2
39,34:5
39,35:2
39,36:3
39,37:1
39,40:1
39,41:1
39,44:5
40,4:1
40,5:4
40,8:1
40,9:2
40,12:2
40,14:2
40,16:3
40,17:1
40,19:2
40,20:1
40,21:3
40,22:4
40,24:4
40,27:1
40,28:2
40,29:4
40,32:2
40,33:1
40,34:4
40,35:1
40,36:2
40,44:4
41,4:1
41,5:4
41,8:1
41,9:2
41,12:2
41,14:2
41,16:3
41,17:1
41,19:2
41,20:1
41,21:3
41,22:4
41,24:4
41,27:1
41,28:2
41,29:4
41,32:2
41,33:1
41,34:4
41,35:1
41,36:2
41,44:4
42,2:1
42,3:1
42,4:2
42,5:5
42,6:1
42,7:1
42,8:2
42,9:3
42,11:1
42,12:3
42,13:1
42,14:3
42,15:1
42,16:4
42,17:2
42,18:1
42,19:3
42,20:2
42,21:4
42,22:5
42,24:5
42,25:1
42,27:2
42,28:3
42,29:5
42,30:1
42,32:3
42,33:2
42,34:5
42,35:2
42,36:3
42,37:1
42,40:1
42,41:1
42,44:5
43,2:1
43,3:1
43,4:2
43,5:5
43,6:1
43,7:1
43,8:2
43,9:3
43,11:1
43,12:3
43,13:1
43,14:3
43,15:1
43,16:4
43,17:2
43,18:1
43,19:3
43,20:2
43,21:4
43,22:5
43,24:5
43,25:1
43,27:2
43,28:3
43,29:5
43,30:1
43,32:3
43,33:2
43,34:5
43,35:2
43,36:3
43,37:1
43,40:1
43,41:1
43,44:5
45,5:1
45,22:1
45,24:1
45,29:1
45,34:1
45,44:1
46,4:1
46,5:4
46,8:1
46,9:2
46,12:2
46,14:2
46,16:3
46,17:1
46,19:2
46,20:1
46,21:3
46,22:4
46,24:4
46,27:1
46,28:2
46,29:4
46,32:2
46,33:1
46,34:4
46,35:1
46,36:2
46,44:4
46,45:3
46,48:2
47,5:2
47,16:1
47,21:1
47,22:2
47,24:2
47,29:2
47,34:2
47,44:2
47,45:1
48,5:2
48,16:1
48,21:1
48,22:2
48,24:2
48,29:2
48,34:2
48,44:2
48,45:1
48,54:1
48,56:1
49,4:1
49,5:4
49,8:1
49,9:2
49,12:2
49,14:2
49,16:3
49,17:1
49,19:2
49,20:1
49,21:3
49,22:4
49,24:4
49,27:1
49,28:2
49,29:4
49,32:2
49,33:1
49,34:4
49,35:1
49,36:2
49,44:4
49,45:3
49,47:2
49,48:2
49,51:2
49,52:2
49,53:2
49,54:3
49,55:4
49,56:3
49,57:4
50,4:1
50,5:4
50,8:1
50,9:2
50,12:2
50,14:2
50,16:3
50,17:1
50,19:2
50,20:1
50,21:3
50,22:4
50,24:4
50,27:1
50,28:2
50,29:4
50,32:2
50,33:1
50,34:4
50,35:1
50,36:2
50,44:4
50,45:3
50,47:2
50,48:2
50,51:2
50,52:2
50,53:2
50,54:3
50,55:4
50,56:3
50,57:4
51,5:2
51,16:1
51,21:1
51,22:2
51,24:2
51,29:2
51,34:2
51,44:2
51,45:1
52,5:2
52,16:1
52,21:1
52,22:2
52,24:2
52,29:2
52,34:2
52,44:2
52,45:1
53,5:2
53,16:1
53,21:1
53,22:2
53,24:2
53,29:2
53,34:2
53,44:2
53,45:1
54,5:1
54,22:1
54,24:1
54,29:1
54,34:1
54,44:1
56,5:1
56,22:1
56,24:1
56,29:1
56,34:1
56,44:1
56,55:1

<end>

<optimal SALBP-1 value>
27


<rand seed>
467321153

<Lower Bounds>
Lm1=25
Lms1=25
Lm2=24
Lm3=24
Lm4=25
Best=25

<Optimal Stations (Iterations: 10)>
32
